50 8
310 175
900 457
700 383
198 610
328 60
592 440
624 439
109 560
853 650
778 543
287 31
776 498
765 897
710 425
274 558
266 767
338 334
898 458
345 771
405 943
935 468
496 302
138 217
312 474
279 419
800 544
396 939
154 406
311 848
459 285
641 548
594 361
810 309
819 462
95 289
276 623
422 232
819 521
873 437
719 420
773 456
683 410
920 467
417 326
644 477
162 395
871 461
776 283
217 460
788 514
